NAME: ./prFile/tspFile/tsp_file88.tsp
COMMENT: TSP file generated by Python
TYPE: TSP
DIMENSION: 40
EDGE_WEIGHT_TYPE: EUC_2D
NODE_COORD_SECTION
1 31 60
2 91 86
3 88 34
4 15 36
5 45 35
6 9 30
7 35 58
8 91 75
9 13 49
10 69 17
11 72 71
12 100 40
13 97 73
14 2 65
15 48 16
16 3 46
17 79 76
18 19 63
19 57 22
20 93 68
21 32 20
22 4 86
23 44 14
24 33 25
25 4 1
26 6 83
27 4 62
28 93 9
29 86 66
30 3 30
31 46 59
32 22 12
33 99 12
34 7 93
35 58 89
36 4 47
37 42 89
38 99 21
39 70 5
40 58 56
EOF
